
******************************************************************************
This program contains Ipopt, a library for large-scale nonlinear optimization.
 Ipopt is released as open source code under the Eclipse Public License (EPL).
         For more information visit http://projects.coin-or.org/Ipopt
******************************************************************************

This is Ipopt version 3.12.6, running with linear solver ma57.

Number of nonzeros in equality constraint Jacobian...:        0
Number of nonzeros in inequality constraint Jacobian.:        0
Number of nonzeros in Lagrangian Hessian.............:    14560

Total number of variables............................:     4900
                     variables with only lower bounds:        0
                variables with lower and upper bounds:        0
                     variables with only upper bounds:        0
Total number of equality constraints.................:        0
Total number of inequality constraints...............:        0
        inequality constraints with only lower bounds:        0
   inequality constraints with lower and upper bounds:        0
        inequality constraints with only upper bounds:        0

iter    objective    inf_pr   inf_du lg(mu)  ||d||  lg(rg) alpha_du alpha_pr  ls
   0 -2.0000000e+00 0.00e+00 3.97e-04  -1.0 0.00e+00    -  0.00e+00 0.00e+00   0
   1 -2.0781691e+00 0.00e+00 5.74e-06  -5.7 1.65e-01    -  1.00e+00 1.00e+00f  1
   2 -2.0781733e+00 0.00e+00 4.82e-10  -8.6 1.43e-03    -  1.00e+00 1.00e+00f  1

Number of Iterations....: 2

                                   (scaled)                 (unscaled)
Objective...............:  -2.0781732752928037e+00   -2.0781732752928037e+00
Dual infeasibility......:   4.8216232514854823e-10    4.8216232514854823e-10
Constraint violation....:   0.0000000000000000e+00    0.0000000000000000e+00
Complementarity.........:   0.0000000000000000e+00    0.0000000000000000e+00
Overall NLP error.......:   4.8216232514854823e-10    4.8216232514854823e-10


Number of objective function evaluations             = 3
Number of objective gradient evaluations             = 3
Number of equality constraint evaluations            = 0
Number of inequality constraint evaluations          = 0
Number of equality constraint Jacobian evaluations   = 0
Number of inequality constraint Jacobian evaluations = 0
Number of Lagrangian Hessian evaluations             = 2
Total CPU secs in IPOPT (w/o function evaluations)   =      0.033
Total CPU secs in NLP function evaluations           =      0.023

EXIT: Optimal Solution Found.

 ** SUBROUTINE CUTEST_csetup: Warning. The problem has no general constraints. 
 ** Other tools may be preferable ** 

************************ CUTEst statistics ************************


 Package used            :  IPOPT
 Problem                 :  SSC       
 # variables             =            5184
 # constraints           =               0
 # objective functions   =        0.7000000E+01
 # objective gradients   =        0.4000000E+01
 # objective Hessians    =        0.3000000E+01
 # Hessian-vector prdct  =        0.0000000E+00
 # constraints functions =        0.0000000E+00
 # constraints gradients =        0.0000000E+00
 # constraints Hessians  =        0.0000000E+00
 Exit code               =               0
 Final f                 =  -0.2078173E+01
 Set up time             =            0.25 seconds
 Solve time              =            0.09 seconds


******************************************************************

System Time =       0.0430000015 s.
